proyfinal/src/viki/013/experimentInOfficeAgust.take6.output/534e875e-502a-437f-9df1-429c89afe95a.als.out
Reading from standard input... Use '--help' for help.
============================[ Problem Statistics ]=============================
|                                                                             |
|  Number of variables:         87638                                         |
|  Number of clauses:          161767                                         |
|  Parse time:                   0.03 s                                       |
|                                                                             |
============================[ Search Statistics ]==============================
| Conflicts |          ORIGINAL         |          LEARNT          | Progress |
|           |    Vars  Clauses Literals |    Limit  Clauses Lit/Cl |          |
===============================================================================
|       100 |   62458   105677   263489 |    38748      100     27 | 28.732 % |
|       250 |   62458   105677   263489 |    42623      250     58 | 28.732 % |
|       475 |   62458   105677   263489 |    46885      475     62 | 28.732 % |
|       812 |   62457   105633   263399 |    51573      811     64 | 28.733 % |
|      1318 |   62457   105633   263399 |    56731     1317     67 | 28.733 % |
|      2077 |   62421   105489   263059 |    62404     2074     74 | 28.774 % |
|      3216 |   62340   105229   262450 |    68644     3207     86 | 28.866 % |
|      4924 |   62322   105087   262118 |    75509     4912     80 | 28.887 % |
|      7486 |   62322   105087   262118 |    83060     7474     81 | 28.887 % |
|     11330 |   54969    82539   206808 |    91366    10356     78 | 37.277 % |
|     17096 |   54793    81629   204715 |   100502    12308     73 | 37.478 % |
===============================================================================
restarts              : 70
conflicts             : 20398          (8072 /sec)
decisions             : 65205          (0.00 % random) (25805 /sec)
propagations          : 25896377       (10248421 /sec)
conflict literals     : 1412822        (48.97 % deleted)
Memory used           : 43.29 MB
CPU time              : 2.52686 s

UNSATISFIABLE
